instances/shortest_path/discrete/shortest_path_4_15.lp
\ Model nohadani_4_15
\ LP format - for model browsing. Use MPS format to capture full model detail.
\ Signature: 0x26b3cf7f3313a25f
Minimize
  34.05877273185281 y[0,1] + 38.62641583165593 y[0,2]
   + 47.01063709417264 y[0,3] + 34.05877273185281 y[1,0]
   + 37.36308338453881 y[1,2] + 22.13594362117865 y[1,3]
   + 38.62641583165593 y[2,0] + 37.36308338453881 y[2,1]
   + 47.01063709417264 y[3,0] + 22.13594362117865 y[3,1] + x[0,1] + x[0,2]
   + x[0,3] + x[1,0] + x[1,2] + x[1,3] + x[2,0] + x[2,1] + x[3,0] + x[3,1]
   + 3.405877273185281 r[0,1] + 3.862641583165594 r[0,2]
   + 4.701063709417264 r[0,3] + 3.405877273185281 r[1,0]
   + 3.736308338453881 r[1,2] + 2.213594362117866 r[1,3]
   + 3.862641583165594 r[2,0] + 3.736308338453881 r[2,1]
   + 4.701063709417264 r[3,0] + 2.213594362117866 r[3,1]
Subject To
 flow_cons_inner_nodes[0]: - y[0,1] - y[0,2] - y[0,3] + y[1,0] + y[2,0]
   + y[3,0] = 0
 flow_cons_inner_nodes[1]: y[0,1] - y[1,0] - y[1,2] - y[1,3] + y[2,1]
   + y[3,1] = 0
 flow_cons_source: - y[0,2] - y[1,2] + y[2,0] + y[2,1] = 1
 flow_cons_target: y[0,3] + y[1,3] - y[3,0] - y[3,1] = 1
 primal_lower: 9.504090139263015 x[0,1] + 0.3051196787446104 x[0,2]
   + 1.048855681375098 x[0,3] + 8.817825587806123 x[1,0]
   + 5.998876950370393 x[1,2] + 2.470565631985406 x[1,3]
   + 7.239224230978044 x[2,0] + 0.2596460450597011 x[2,1]
   + 3.339423843095207 x[3,0] + 2.209253464835404 x[3,1] + 44 u[0,1]
   + 97 u[0,2] + 83 u[0,3] + 80 u[1,0] + 17 u[1,2] + 54 u[1,3] + 54 u[2,0]
   + 44 u[2,1] + 50 u[3,0] + 23 u[3,1] <= 97
 mccormick1[0,1]: - u[0,1] + r[0,1] <= 0
 mccormick1[0,2]: - u[0,2] + r[0,2] <= 0
 mccormick1[0,3]: - u[0,3] + r[0,3] <= 0
 mccormick1[1,0]: - u[1,0] + r[1,0] <= 0
 mccormick1[1,2]: - u[1,2] + r[1,2] <= 0
 mccormick1[1,3]: - u[1,3] + r[1,3] <= 0
 mccormick1[2,0]: - u[2,0] + r[2,0] <= 0
 mccormick1[2,1]: - u[2,1] + r[2,1] <= 0
 mccormick1[3,0]: - u[3,0] + r[3,0] <= 0
 mccormick1[3,1]: - u[3,1] + r[3,1] <= 0
 mccormick2[0,1]: - y[0,1] + r[0,1] <= 0
 mccormick2[0,2]: - y[0,2] + r[0,2] <= 0
 mccormick2[0,3]: - y[0,3] + r[0,3] <= 0
 mccormick2[1,0]: - y[1,0] + r[1,0] <= 0
 mccormick2[1,2]: - y[1,2] + r[1,2] <= 0
 mccormick2[1,3]: - y[1,3] + r[1,3] <= 0
 mccormick2[2,0]: - y[2,0] + r[2,0] <= 0
 mccormick2[2,1]: - y[2,1] + r[2,1] <= 0
 mccormick2[3,0]: - y[3,0] + r[3,0] <= 0
 mccormick2[3,1]: - y[3,1] + r[3,1] <= 0
 mccormick3[0,1]: - y[0,1] - u[0,1] + r[0,1] >= -1
 mccormick3[0,2]: - y[0,2] - u[0,2] + r[0,2] >= -1
 mccormick3[0,3]: - y[0,3] - u[0,3] + r[0,3] >= -1
 mccormick3[1,0]: - y[1,0] - u[1,0] + r[1,0] >= -1
 mccormick3[1,2]: - y[1,2] - u[1,2] + r[1,2] >= -1
 mccormick3[1,3]: - y[1,3] - u[1,3] + r[1,3] >= -1
 mccormick3[2,0]: - y[2,0] - u[2,0] + r[2,0] >= -1
 mccormick3[2,1]: - y[2,1] - u[2,1] + r[2,1] >= -1
 mccormick3[3,0]: - y[3,0] - u[3,0] + r[3,0] >= -1
 mccormick3[3,1]: - y[3,1] - u[3,1] + r[3,1] >= -1
Bounds
Binaries
 y[0,1] y[0,2] y[0,3] y[1,0] y[1,2] y[1,3] y[2,0] y[2,1] y[3,0] y[3,1]
 x[0,1] x[0,2] x[0,3] x[1,0] x[1,2] x[1,3] x[2,0] x[2,1] x[3,0] x[3,1]
 u[0,1] u[0,2] u[0,3] u[1,0] u[1,2] u[1,3] u[2,0] u[2,1] u[3,0] u[3,1]
 r[0,1] r[0,2] r[0,3] r[1,0] r[1,2] r[1,3] r[2,0] r[2,1] r[3,0] r[3,1]
End
