instances/shortest_path/discrete/shortest_path_4_15.kp
34199
97

[9.504090139263015 0.30511967874461043 1.0488556813750982 8.817825587806123 5.998876950370393 2.4705656319854064 7.239224230978044 0.2596460450597011 3.3394238430952066 2.2092534648354043]

[44 97 83 80 17 54 54 44 50 23]
